NAME : amz2789.116544_113544.tour
COMMENT : Cost = 116544_113544
COMMENT : Found by LKH-AMZ [Keld Helsgaun] Sun May 11 14:11:29 2025
COMMENT : TW viol.: 0 #: 0
TYPE : TOUR
DIMENSION : 100
TOUR_SECTION
90
4
49
7
79
33
25
68
71
21
97
1
8
45
63
35
11
60
64
30
66
17
74
89
70
18
55
5
26
16
12
54
43
91
40
37
44
50
78
67
83
85
81
84
42
93
36
92
6
28
48
20
31
94
9
58
62
75
72
34
29
32
76
2
19
23
80
10
57
59
41
46
47
87
73
52
22
69
96
95
98
51
56
24
65
61
77
88
99
100
14
38
13
15
86
82
39
27
3
53
-1
EOF
